nN = 4;
nR = 17;
nH = 1;

a = [[23, 17, 15, 8, 22, 20, 22, 12, 16, 25, 17, 6, 22, 25, 23, 7, 13], [8, 13, 19, 24, 15, 5, 22, 19, 9, 8, 17, 5, 15, 7, 14, 20, 11], [15, 5, 20, 13, 16, 12, 17, 10, 21, 25, 10, 6, 16, 15, 24, 21, 14], [14, 10, 25, 24, 18, 25, 13, 20, 10, 21, 10, 13, 8, 10, 9, 20, 16]];
c = [[[0, 0, 0, 0, 0, 0, 0, 0, 0, 0, 0, 0, 0, 0, 0, 0, 0], [46, 37, 39, 46, 40, 31, 44, 33, 42, 50, 43, 35, 50, 35, 30, 32, 32], [40, 35, 40, 30, 37, 34, 38, 40, 36, 35, 43, 37, 38, 37, 32, 46, 39], [38, 47, 45, 32, 38, 37, 46, 30, 41, 39, 49, 42, 38, 49, 30, 41, 49]], [[0, 0, 0, 0, 0, 0, 0, 0, 0, 0, 0, 0, 0, 0, 0, 0, 0], [0, 0, 0, 0, 0, 0, 0, 0, 0, 0, 0, 0, 0, 0, 0, 0, 0], [47, 31, 39, 32, 37, 35, 47, 42, 44, 42, 37, 50, 35, 33, 31, 50, 45], [40, 48, 48, 46, 44, 35, 30, 42, 36, 44, 39, 36, 41, 39, 36, 32, 40]], [[0, 0, 0, 0, 0, 0, 0, 0, 0, 0, 0, 0, 0, 0, 0, 0, 0], [0, 0, 0, 0, 0, 0, 0, 0, 0, 0, 0, 0, 0, 0, 0, 0, 0], [0, 0, 0, 0, 0, 0, 0, 0, 0, 0, 0, 0, 0, 0, 0, 0, 0], [47, 50, 47, 49, 40, 38, 31, 50, 39, 43, 43, 44, 31, 39, 43, 46, 49]], [[0, 0, 0, 0, 0, 0, 0, 0, 0, 0, 0, 0, 0, 0, 0, 0, 0], [0, 0, 0, 0, 0, 0, 0, 0, 0, 0, 0, 0, 0, 0, 0, 0, 0], [0, 0, 0, 0, 0, 0, 0, 0, 0, 0, 0, 0, 0, 0, 0, 0, 0], [0, 0, 0, 0, 0, 0, 0, 0, 0, 0, 0, 0, 0, 0, 0, 0, 0]]];
Q = [[58], [47], [52], [42]];

q = [[[20], [22], [21], [25], [11], [20], [23], [13], [24], [9], [11], [13], [12], [18], [10], [25], [9]], [[24], [9], [5], [6], [20], [21], [12], [20], [15], [17], [16], [8], [18], [13], [9], [10], [12]], [[7], [18], [13], [6], [22], [22], [15], [16], [16], [7], [20], [24], [8], [25], [20], [12], [7]], [[5], [10], [12], [9], [9], [6], [7], [8], [24], [10], [24], [10], [17], [16], [15], [21], [7]]];
p = [0.61, 0.09, 0.45, 0.57, 0.51, 0.85, 0.27, 0.67, 0.63, 0.94, 0.72, 0.23, 0.33, 0.55, 0.58, 0.6, 0.56];
